
List of user-set options:

                                    Name   Value                used
                           compl_inf_tol = 1                     yes
                         constr_viol_tol = 1                     yes
                            dual_inf_tol = 1000                  yes
                           linear_solver = ma97                  yes
                              ma86_small = 1e-30                  no
                                  ma86_u = 0.0001                 no
                              ma97_order = best                  yes
                              ma97_small = 1e-30                 yes
                            ma97_switch1 = at_start              yes
                            ma97_switch2 = od_hd_reuse           yes
                                  ma97_u = 1e-06                 yes
                               ma97_umax = 0.5                   yes
                                max_iter = 1000                  yes
                    max_refinement_steps = 20                    yes
                    min_refinement_steps = 5                     yes
                                 mu_init = 1e-06                 yes
           mu_superlinear_decrease_power = 1.25                  yes
                   nlp_scaling_min_value = 1e-08                 yes
                        option_file_name = Preset_Case:_687_NCP.opt  yes
                             output_file = ./tmp/Preset_Case:_687_NCP.output  yes
                      print_user_options = yes                   yes
        required_infeasibility_reduction = 1                      no
                                     tol = 1e-08                 yes
                   warm_start_bound_frac = 1e-20                 yes
                   warm_start_bound_push = 1e-20                 yes
                   warm_start_init_point = yes                   yes
              warm_start_mult_bound_push = 1e-20                 yes
                warm_start_mult_init_max = 1e+40                 yes
             warm_start_slack_bound_frac = 1e-20                 yes
             warm_start_slack_bound_push = 1e-20                 yes

******************************************************************************
This program contains Ipopt, a library for large-scale nonlinear optimization.
 Ipopt is released as open source code under the Eclipse Public License (EPL).
         For more information visit http://projects.coin-or.org/Ipopt
******************************************************************************

This is Ipopt version 3.12.10, running with linear solver ma97.

Number of nonzeros in equality constraint Jacobian...:   117167
Number of nonzeros in inequality constraint Jacobian.:      213
Number of nonzeros in Lagrangian Hessian.............:    47513

Total number of variables............................:    29977
                     variables with only lower bounds:    11312
                variables with lower and upper bounds:    15135
                     variables with only upper bounds:        0
Total number of equality constraints.................:    29864
Total number of inequality constraints...............:       25
        inequality constraints with only lower bounds:        4
   inequality constraints with lower and upper bounds:        0
        inequality constraints with only upper bounds:       21

iter    objective    inf_pr   inf_du lg(mu)  ||d||  lg(rg) alpha_du alpha_pr  ls
   0 -1.6949779e-01 1.74e-01 2.00e+00  -6.0 0.00e+00    -  0.00e+00 0.00e+00   0
In iteration 0, 8 Slacks too small, adjusting variable bounds
   1 -1.6949779e-01 1.74e-01 9.23e+02  -6.0 1.08e+10    -  9.23e-14 2.88e-18h  1
   2 -1.6949731e-01 1.74e-01 1.24e+03  -6.0 2.23e+02    -  1.00e-02 8.06e-06f  1
   3 -1.6948356e-01 1.74e-01 1.20e+03  -6.0 1.61e+02    -  3.60e-02 3.09e-04h  1
   4 -1.6882545e-01 1.72e-01 1.16e+03  -6.0 3.49e+02    -  4.38e-02 1.44e-02h  3
   5 -1.6704382e-01 1.65e-01 1.07e+03  -6.0 1.55e+02    -  8.23e-02 4.00e-02h  2
   6 -1.6508108e-01 1.58e-01 9.84e+02  -6.0 1.53e+02    -  9.00e-02 4.28e-02h  1
   7 -1.6505523e-01 1.58e-01 5.47e+04  -6.0 1.60e+02    -  9.46e-02 6.10e-04h  1
   8 -1.6335245e-01 1.51e-01 2.25e+05  -6.0 1.70e+02    -  3.71e-01 3.97e-02h  3
   9 -1.6160990e-01 1.46e-01 2.50e+05  -6.0 1.72e+02    -  1.51e-01 3.65e-02h  4
iter    objective    inf_pr   inf_du lg(mu)  ||d||  lg(rg) alpha_du alpha_pr  ls
  10 -1.6002307e-01 1.41e-01 3.44e+05  -6.0 1.78e+02    -  4.28e-01 3.24e-02h  4
  11 -1.5864978e-01 1.37e-01 3.45e+05  -6.0 1.97e+02    -  3.36e-01 2.52e-02h  4
  12 -1.5739729e-01 1.34e-01 3.24e+05  -6.0 2.11e+02    -  4.16e-01 2.26e-02h  4
  13 -1.5680130e-01 1.33e-01 2.91e+05  -6.0 2.35e+02    -  4.36e-01 1.08e-02h  5
  14 -1.5613404e-01 1.31e-01 2.58e+05  -6.0 2.86e+02    -  4.04e-01 1.25e-02h  5
  15 -1.5509029e-01 1.29e-01 2.20e+05  -6.0 4.12e+02    -  4.85e-01 1.95e-02h  3
  16 -1.5439970e-01 1.27e-01 2.33e+05  -6.0 5.45e+01  -4.0 6.48e-01 1.24e-02h  7
  17 -1.5384579e-01 1.26e-01 2.72e+05  -6.0 4.49e+01  -3.6 5.41e-01 1.04e-02h  7
  18 -1.3388902e-01 1.51e+00 1.65e+05  -6.0 4.00e+01  -3.1 4.63e-01 4.24e-01w  1
  19 -1.2080966e-01 2.19e+00 4.61e+05  -6.0 2.67e+01  -2.7 8.27e-01 3.72e-01w  1
iter    objective    inf_pr   inf_du lg(mu)  ||d||  lg(rg) alpha_du alpha_pr  ls
  20 -1.1586836e-01 1.84e+00 1.06e+06  -6.0 1.75e+01  -2.3 8.36e-01 2.18e-01w  1
  21 -1.5259849e-01 1.22e-01 3.49e+05  -6.0 1.26e+01  -1.9 4.63e-01 2.65e-02h  4
  22 -1.5133081e-01 1.18e-01 3.70e+05  -6.0 3.27e+01  -2.3 7.11e-02 3.55e-02h  3
  23 -1.5069992e-01 1.16e-01 6.09e+05  -6.0 3.81e+01  -2.8 6.28e-01 1.44e-02h  6
  24 -1.5065525e-01 1.16e-01 4.80e+05  -6.0 9.31e+01  -3.3 4.41e-01 8.90e-04h  8
  25 -1.4987706e-01 1.14e-01 6.72e+05  -6.0 3.76e+01  -2.9 8.19e-01 1.72e-02h  6
  26 -1.4894273e-01 1.12e-01 7.27e+05  -6.0 3.48e+01  -2.4 1.17e-01 2.34e-02h  5
  27 -1.4813745e-01 1.10e-01 6.96e+05  -6.0 3.72e+01  -2.9 7.70e-01 1.73e-02h  2
  28 -1.4759127e-01 1.08e-01 7.05e+05  -6.0 3.50e+01  -2.5 3.94e-02 1.33e-02h  6
  29 -1.4695479e-01 1.07e-01 6.43e+05  -6.0 3.61e+01  -3.0 9.56e-01 1.36e-02h  1
iter    objective    inf_pr   inf_du lg(mu)  ||d||  lg(rg) alpha_du alpha_pr  ls
  30 -1.4596792e-01 1.04e-01 6.20e+05  -6.0 3.45e+01  -2.6 1.15e-02 2.38e-02h  5
  31 -1.4595665e-01 1.04e-01 6.02e+05  -6.0 3.43e+01  -3.0 5.87e-01 2.45e-04h  1
  32 -1.4496067e-01 1.02e-01 1.21e+06  -6.0 3.42e+01  -2.6 1.00e+00 2.38e-02h  5
  33 -1.4491309e-01 1.02e-01 9.65e+05  -6.0 7.38e+01  -3.1 3.13e-01 1.05e-03h  8
  34 -1.4405650e-01 9.96e-02 1.14e+06  -6.0 3.44e+01  -2.7 1.00e+00 2.01e-02h  6
  35 -1.4379257e-01 9.90e-02 7.84e+05  -6.0 3.38e+01  -3.1 5.33e-01 5.74e-03h  7
  36 -1.4290662e-01 9.69e-02 1.05e+06  -6.0 3.38e+01  -2.7 1.00e+00 2.08e-02h  6
  37 -1.4266635e-01 9.64e-02 6.97e+05  -6.0 3.27e+01  -3.2 5.53e-01 5.32e-03h  7
  38 -1.4183272e-01 9.45e-02 9.49e+05  -6.0 3.30e+01  -2.8 1.00e+00 1.98e-02h  6
  39 -1.4149665e-01 9.38e-02 5.63e+05  -6.0 3.30e+01  -3.2 6.59e-01 7.57e-03h  7
iter    objective    inf_pr   inf_du lg(mu)  ||d||  lg(rg) alpha_du alpha_pr  ls
  40 -1.4087133e-01 9.24e-02 8.28e+05  -6.0 3.17e+01  -2.8 1.00e+00 1.52e-02h  6
  41 -1.4007590e-01 9.04e-02 1.76e+06  -6.0 3.03e+01  -2.4 9.45e-01 2.12e-02h  5
  42 -1.1525534e-01 8.05e+00 2.96e+05  -6.0 3.10e+01  -2.9 1.00e+00 6.04e-01w  1
  43 -1.1497021e-01 7.92e+00 8.05e+05  -6.0 1.07e+01  -2.4 1.00e+00 1.67e-02w  1
  44 -1.1018920e-01 5.74e+00 2.50e+05  -6.0 1.31e+01  -2.9 9.63e-01 2.75e-01w  1
  45 -1.3968807e-01 8.95e-02 7.34e+05  -6.0 7.75e+00  -2.5 1.00e+00 9.44e-03h  6
  46 -1.3918823e-01 8.85e-02 6.12e+05  -6.0 3.04e+01  -3.0 8.57e-01 1.21e-02h  7
  47 -1.3832021e-01 8.64e-02 1.34e+06  -6.0 2.96e+01  -2.5 1.00e+00 2.29e-02h  5
  48 -1.3766984e-01 8.50e-02 6.38e+05  -6.0 2.88e+01  -3.0 8.26e-01 1.62e-02h  6
  49 -1.3665180e-01 8.27e-02 1.20e+06  -6.0 2.86e+01  -2.6 1.00e+00 2.74e-02h  5
iter    objective    inf_pr   inf_du lg(mu)  ||d||  lg(rg) alpha_du alpha_pr  ls
  50 -1.3581626e-01 8.36e-02 4.44e+05  -6.0 2.84e+01  -3.1 9.64e-01 2.15e-02h  6
  51 -1.3509458e-01 8.45e-02 1.04e+06  -6.0 2.69e+01  -2.6 1.00e+00 2.02e-02h  5
  52 -1.3448884e-01 8.83e-02 3.39e+05  -6.0 2.88e+01  -3.1 9.93e-01 1.63e-02h  6
  53 -1.3341508e-01 8.95e-02 8.88e+05  -6.0 2.56e+01  -2.7 1.00e+00 3.09e-02h  4
  54 -1.3309415e-01 9.18e-02 3.11e+05  -6.0 2.90e+01  -3.2 9.12e-01 9.24e-03h  6
  55 -1.2461638e-01 4.61e-01 6.37e+05  -6.0 2.46e+01  -2.7 1.00e+00 2.49e-01w  1
  56 -1.1411589e-01 8.78e-01 1.20e+06  -6.0 1.86e+01  -2.3 1.00e+00 4.05e-01w  1
  57 -1.1234120e-01 8.16e-01 4.03e+06  -6.0 1.07e+01  -1.9 1.00e+00 1.08e-01w  1
  58 -1.3097471e-01 9.51e-02 7.94e+05  -6.0 2.01e+01  -2.4 1.00e+00 6.22e-02h  2
  59 -1.3018857e-01 9.78e-02 6.53e+05  -6.0 2.29e+01  -2.8 1.00e+00 2.40e-02h  6
iter    objective    inf_pr   inf_du lg(mu)  ||d||  lg(rg) alpha_du alpha_pr  ls
  60 -1.3014946e-01 9.80e-02 6.11e+05  -6.0 3.03e+02  -3.3 4.07e-02 9.76e-04h  7
  61 -1.2912028e-01 1.02e-01 3.80e+06  -6.0 2.21e+01  -2.0 1.00e+00 3.56e-02h  3
  62 -1.2866212e-01 1.04e-01 1.34e+06  -6.0 2.14e+01  -2.5 1.00e+00 1.56e-02h  6
  63 -1.2760176e-01 1.10e-01 3.62e+06  -6.0 2.15e+01  -2.0 1.00e+00 3.72e-02h  4
  64 -1.2736045e-01 1.11e-01 1.10e+06  -6.0 2.52e+01  -2.5 1.00e+00 8.62e-03h  6
  65 -1.2652962e-01 1.14e-01 3.25e+06  -6.0 2.04e+01  -2.1 1.00e+00 3.00e-02h  4
  66 -1.2620640e-01 1.14e-01 1.07e+06  -6.0 1.91e+01  -2.6 1.00e+00 1.16e-02h  6
  67 -1.2348722e-01 1.09e-01 6.11e+05  -6.0 2.73e+01  -3.0 5.59e-01 9.28e-02h  3
  68 -1.2124178e-01 3.68e-01 5.01e+05  -6.0 5.02e+01  -2.6 4.41e-01 1.00e-01w  1
  69 -1.1983814e-01 3.45e-01 2.44e+06  -6.0 1.55e+01  -2.2 1.00e+00 6.14e-02w  1
iter    objective    inf_pr   inf_du lg(mu)  ||d||  lg(rg) alpha_du alpha_pr  ls
  70 -1.1505650e-01 2.95e-01 5.63e+06  -6.0 1.50e+01  -1.8 1.00e+00 2.22e-01w  1
  71 -1.2334688e-01 1.09e-01 5.46e+05  -6.0 1.14e+01  -1.3 4.41e-01 6.28e-03h  4
  72 -1.2173180e-01 1.08e-01 5.06e+06  -6.0 1.70e+01  -1.8 9.56e-01 6.74e-02h  1
  73 -1.2115884e-01 1.13e-01 1.80e+06  -6.0 1.62e+01  -2.3 1.00e+00 2.50e-02h  5
  74 -1.2031573e-01 1.15e-01 5.10e+06  -6.0 1.57e+01  -1.9 1.00e+00 3.77e-02h  4
  75 -1.1988251e-01 1.18e-01 1.48e+06  -6.0 1.85e+01  -2.3 1.00e+00 2.03e-02h  5
  76 -1.1901529e-01 1.22e-01 4.59e+05  -6.0 1.89e+01  -2.8 1.00e+00 4.01e-02h  4
  77 -1.1758099e-01 1.22e-01 1.55e+06  -6.0 1.45e+01  -2.4 1.00e+00 6.76e-02h  2
  78 -1.1522883e-01 1.17e-01 4.21e+05  -6.0 1.79e+01  -2.9 9.73e-01 1.17e-01h  2
  79 -1.1522849e-01 1.17e-01 7.83e+06  -6.0 1.10e+01  -1.5 9.02e-01 2.08e-05h  1
iter    objective    inf_pr   inf_du lg(mu)  ||d||  lg(rg) alpha_du alpha_pr  ls
  80 -1.1423134e-01 1.19e-01 2.79e+06  -6.0 1.23e+01  -2.0 1.00e+00 6.16e-02h  3
  81 -1.1303571e-01 1.21e-01 7.58e+06  -6.0 1.22e+01  -1.6 1.00e+00 7.85e-02h  3
  82 -1.1224525e-01 1.23e-01 3.67e+06  -6.0 1.33e+01  -2.1 7.29e-01 5.83e-02h  4
  83 -1.0556456e-01 1.32e-01 3.23e+06  -6.0 1.19e+01  -1.6 1.00e+00 5.23e-01H  1
  84 -1.0292370e-01 1.10e-01 1.66e+06  -6.0 5.97e+00  -1.2 4.55e-01 4.68e-01h  1
  85 -1.0142873e-01 5.77e-02 1.58e+06  -6.0 3.44e+00  -1.7 9.83e-01 4.74e-01h  1
  86 -1.0049214e-01 8.04e-03 2.21e+05  -6.0 1.57e+00  -2.2 8.59e-01 1.00e+00h  1
  87 -1.0083529e-01 5.35e-03 1.71e+06  -6.0 2.14e+00  -2.7 2.20e-01 4.16e-01h  1
  88r-1.0083529e-01 5.35e-03 1.00e+03  -2.7 0.00e+00  -3.1 0.00e+00 1.59e-07R  2
  89r-1.0124223e-01 2.36e-03 9.99e+02  -2.7 2.45e+03    -  1.02e-03 1.00e-03f  1
iter    objective    inf_pr   inf_du lg(mu)  ||d||  lg(rg) alpha_du alpha_pr  ls
  90 -1.0110371e-01 1.81e-03 7.81e+02  -6.0 3.70e+00    -  4.73e-01 2.36e-01h  1
  91 -1.0071108e-01 4.33e-04 4.07e+03  -6.0 3.07e+00    -  2.77e-01 1.00e+00h  1
  92 -1.0080823e-01 4.33e-05 6.83e+00  -6.0 6.28e-01    -  9.41e-01 1.00e+00h  1
  93 -1.0292736e-01 6.45e-04 6.59e+00  -6.0 9.35e+00    -  7.18e-01 1.00e+00H  1
  94 -1.0908809e-01 1.30e-02 4.96e+00  -6.0 3.44e+01    -  7.28e-01 1.00e+00H  1
  95 -1.1486309e-01 6.33e-02 6.82e+00  -6.0 1.45e+02    -  5.10e-01 2.99e-01h  1
  96 -1.1708343e-01 6.29e-02 1.60e+01  -6.0 4.51e+02    -  1.43e-01 4.84e-02h  2
  97 -1.1715738e-01 4.26e-02 4.44e+00  -6.0 3.71e-01  -3.6 9.90e-01 3.22e-01h  1
  98 -1.1780094e-01 7.00e-03 9.76e-01  -6.0 8.96e-01  -4.1 3.21e-01 1.00e+00h  1
  99 -1.1864830e-01 2.83e-02 2.95e+00  -6.0 2.70e+00  -4.6 1.00e+00 4.42e-01h  1
iter    objective    inf_pr   inf_du lg(mu)  ||d||  lg(rg) alpha_du alpha_pr  ls
 100 -1.1945358e-01 1.14e-01 4.47e+00  -6.0 3.76e+01  -5.0 1.12e-01 8.60e-02h  2
 101 -1.2128099e-01 1.61e-01 2.28e+00  -6.0 3.48e+00  -4.6 1.00e+00 7.65e-01h  1
 102 -1.2310821e-01 2.62e-01 2.69e+00  -6.0 1.05e+01  -5.1 5.08e-01 2.83e-01h  2
 103 -1.2338087e-01 2.62e-01 1.26e+01  -6.0 3.84e+01  -5.6 3.56e-01 1.28e-02h  4
 104 -1.2388017e-01 2.54e-01 1.58e+01  -6.0 1.11e+01  -5.1 1.00e+00 7.25e-02h  3
 105 -1.2430655e-01 2.57e-01 2.54e+01  -6.0 3.54e+01  -5.6 2.92e-01 2.12e-02h  3
 106 -1.2445749e-01 2.57e-01 3.30e+01  -6.0 2.92e+02  -6.1 7.74e-02 2.06e-03h  5
 107 -1.2766451e-01 6.44e-01 2.34e+01  -6.0 3.30e+01  -5.7 1.00e+00 2.33e-01h  1
 108 -1.3970058e-01 6.20e+00 2.51e+01  -6.0 9.37e+01  -6.1 2.05e-01 4.57e-01h  1
 109 -1.4058701e-01 5.76e+00 2.31e+01  -6.0 7.08e+01  -5.7 2.13e-01 7.56e-02h  1
iter    objective    inf_pr   inf_du lg(mu)  ||d||  lg(rg) alpha_du alpha_pr  ls
 110 -1.4501542e-01 4.29e+00 1.70e+01  -6.0 1.17e+02  -6.2 2.28e-01 2.56e-01h  1
 111 -1.4612880e-01 3.74e+00 1.47e+01  -6.0 4.54e+01  -5.8 3.30e-01 1.29e-01h  1
 112 -1.5020905e-01 3.34e+00 1.31e+01  -6.0 2.50e+02  -6.3 4.61e-02 1.06e-01h  1
 113 -1.5357771e-01 2.06e+00 2.68e+01  -6.0 4.07e+01  -5.8 1.00e+00 4.28e-01h  1
 114 -1.5784834e-01 2.37e+00 4.15e+03  -6.0 2.66e+02  -6.3 3.23e-05 1.07e-01h  1
 115 -1.5681475e-01 2.23e+00 5.55e+03  -6.0 9.16e+01  -5.9 1.61e-02 8.27e-02h  1
 116 -1.5683945e-01 2.20e+00 5.45e+03  -6.0 8.97e+00  -3.6 8.80e-07 1.73e-02h  1
 117 -1.5672156e-01 2.19e+00 5.35e+03  -6.0 2.20e+02  -4.1 5.17e-03 2.67e-03h  1
 118 -1.5635002e-01 2.18e+00 5.27e+03  -6.0 5.89e+01  -3.7 2.77e-03 2.43e-03h  1
 119 -1.5571865e-01 1.91e+00 6.14e+03  -6.0 1.04e+01  -4.2 3.71e-02 1.25e-01h  1
iter    objective    inf_pr   inf_du lg(mu)  ||d||  lg(rg) alpha_du alpha_pr  ls
 120 -1.5206757e-01 8.50e-02 6.16e+03  -6.0 1.28e+01  -4.6 1.88e-01 1.00e+00h  1
 121 -1.5195892e-01 8.31e-02 2.58e+04  -6.0 6.58e+00  -4.2 2.26e-01 2.25e-02h  1
 122 -1.5121318e-01 7.69e-02 6.16e+04  -6.0 4.30e+00  -3.8 5.39e-01 7.47e-02h  1
 123 -1.5037230e-01 6.40e-02 4.27e+04  -6.0 8.11e+00  -4.3 5.54e-01 1.73e-01h  1
 124 -1.5084725e-01 6.24e-02 2.97e+04  -6.0 6.44e+00  -4.8 1.96e-01 3.23e-02h  1
 125 -1.4999623e-01 6.96e-02 2.37e+04  -6.0 1.48e+01  -5.2 8.26e-01 1.20e-01h  1
 126 -1.5219218e-01 1.86e-01 1.83e+03  -6.0 3.06e+01  -5.7 1.00e+00 4.62e-01h  1
 127 -1.5626914e-01 3.38e-01 5.57e+03  -6.0 1.07e+02  -6.2 5.23e-02 2.33e-01h  1
 128 -1.5816950e-01 4.03e-01 2.47e+04  -6.0 3.20e+01  -5.8 1.31e-01 8.91e-01h  1
 129 -1.6347164e-01 1.10e+00 3.01e+04  -6.0 1.44e+02  -6.2 6.59e-02 1.74e-01h  1
iter    objective    inf_pr   inf_du lg(mu)  ||d||  lg(rg) alpha_du alpha_pr  ls
 130 -1.7049289e-01 2.34e+00 7.13e+04  -6.0 4.57e+01  -5.8 9.65e-02 7.37e-01h  1
 131 -1.7160027e-01 2.26e+00 6.88e+04  -6.0 3.21e+02  -6.3 1.08e-05 3.56e-02h  1
 132 -1.7276330e-01 1.33e+00 4.07e+04  -6.0 3.44e+00  -4.1 1.59e-01 4.07e-01h  1
 133 -1.7281387e-01 1.31e+00 4.01e+04  -6.0 4.51e+00  -4.5 1.01e-01 1.56e-02h  1
 134 -1.7320678e-01 1.05e+00 3.20e+04  -6.0 5.87e+00  -4.1 5.64e-02 2.01e-01f  1
 135 -1.7331727e-01 7.93e-01 2.42e+04  -6.0 1.21e+00  -3.7 1.32e-01 2.44e-01h  1
 136 -1.7399029e-01 2.31e-01 7.07e+03  -6.0 2.29e+00  -4.2 3.06e-01 7.09e-01h  1
 137 -1.7451677e-01 1.82e-01 5.55e+03  -6.0 5.67e+00  -4.6 2.67e-01 2.14e-01f  1
 138 -1.7485955e-01 1.25e-01 3.82e+03  -6.0 2.41e+00  -4.2 8.06e-01 3.12e-01f  1
 139 -1.7610207e-01 8.08e-02 2.49e+03  -6.0 7.95e+00  -4.7 2.07e-01 3.51e-01h  1
iter    objective    inf_pr   inf_du lg(mu)  ||d||  lg(rg) alpha_du alpha_pr  ls
 140 -1.7673921e-01 5.98e-02 1.80e+03  -6.0 7.67e+00  -5.2 2.46e-01 2.77e-01f  1
 141 -1.7700054e-01 5.75e-02 1.65e+03  -6.0 1.83e+01  -5.6 2.35e-03 8.56e-02h  1
 142 -1.7747495e-01 7.21e-02 1.52e+03  -6.0 4.70e+01  -6.1 3.04e-01 7.77e-02f  1
 143 -1.8041811e-01 6.79e-01 1.10e+03  -6.0 1.06e+02  -6.6 1.19e-01 2.72e-01h  1
 144 -1.8327161e-01 1.81e+00 8.79e+02  -6.0 1.83e+02  -7.1 1.45e-03 1.95e-01h  1
 145 -1.8488361e-01 1.77e+00 6.16e+02  -6.0 7.73e+01  -6.6 1.33e-01 2.94e-01h  1
 146 -1.8627294e-01 1.79e+00 5.36e+02  -6.0 5.11e+02  -7.1 1.23e-03 8.40e-02h  1
 147 -1.8666561e-01 2.12e+00 3.36e+03  -6.0 3.07e+03  -7.6 4.98e-05 5.46e-03h  1
 148 -1.8665649e-01 2.12e+00 3.37e+03  -6.0 1.10e+04  -6.3 8.69e-04 6.52e-05f  2
 149 -1.8686837e-01 2.06e+00 4.54e+03  -6.0 1.04e+02  -6.7 1.66e-01 3.21e-02h  1
iter    objective    inf_pr   inf_du lg(mu)  ||d||  lg(rg) alpha_du alpha_pr  ls
 150 -1.8710104e-01 2.08e+00 3.07e+04  -6.0 3.67e+02  -7.2 4.92e-01 1.66e-02h  1
 151 -1.8786619e-01 3.75e+00 8.19e+04  -6.0 7.97e+03  -7.7 1.49e-03 4.15e-03h  1
 152 -1.9304504e-01 2.71e+00 6.83e+04  -6.0 7.66e+02  -8.2 7.26e-01 2.97e-01h  1
 153 -1.9835205e-01 1.36e+01 4.89e+04  -6.0 1.32e+03  -7.8 2.77e-01 4.32e-01h  1
 154 -2.0286224e-01 8.17e+00 2.84e+04  -6.0 8.47e+02  -8.2 3.83e-01 4.20e-01h  1
 155 -2.0355676e-01 7.81e+00 2.70e+04  -6.0 1.56e+03  -8.7 7.75e-02 4.44e-02h  1
 156 -2.0651713e-01 5.70e+00 1.94e+04  -6.0 7.87e+02  -8.3 3.87e-01 2.82e-01h  1
 157 -2.0821382e-01 4.98e+00 1.37e+04  -6.0 1.38e+03  -8.8 3.65e-01 2.95e-01h  1
 158 -2.1143803e-01 3.37e+00 4.82e+03  -6.0 4.59e+02  -8.3 5.26e-01 6.49e-01h  1
 159 -2.1257276e-01 2.47e+00 3.51e+03  -6.0 8.74e+02  -8.8 7.04e-01 2.68e-01h  1
iter    objective    inf_pr   inf_du lg(mu)  ||d||  lg(rg) alpha_du alpha_pr  ls
 160 -2.1410299e-01 1.30e+00 1.62e+02  -6.0 2.94e+02  -8.4 1.00e+00 9.62e-01h  1
 161 -2.1424916e-01 1.64e+00 1.24e+01  -6.0 2.95e+02  -7.1 4.90e-03 1.00e+00h  1
 162 -2.1468464e-01 1.07e-01 3.71e-01  -6.0 7.64e+01  -7.5 1.00e+00 1.00e+00h  1
 163 -2.1582876e-01 6.68e-01 2.23e+00  -6.0 1.92e+02  -8.0 1.00e+00 1.00e+00h  1
 164 -2.1632748e-01 6.12e-01 3.78e+00  -6.0 3.28e+02  -8.5 2.23e-01 2.01e-01h  1
 165 -2.1720447e-01 4.02e-01 5.51e+00  -6.0 1.50e+02  -8.1 9.88e-01 1.00e+00h  1
 166 -2.1729267e-01 2.88e-01 1.35e+02  -6.0 4.99e+01  -7.6 1.00e+00 2.92e-01h  1
 167 -2.1758443e-01 2.30e-01 1.36e+02  -6.0 2.08e+02  -8.1 7.98e-01 2.66e-01h  1
 168 -2.1807266e-01 2.29e-01 5.13e+02  -6.0 4.35e+02  -8.6 3.29e-01 1.82e-01h  1
 169 -2.1912092e-01 3.78e-01 2.05e+01  -6.0 1.50e+02  -8.2 1.00e+00 1.00e+00h  1
iter    objective    inf_pr   inf_du lg(mu)  ||d||  lg(rg) alpha_du alpha_pr  ls
 170 -2.1980973e-01 7.55e-01 3.28e+02  -6.0 6.85e+02  -8.6 2.84e-01 2.51e-01h  1
 171 -2.2112523e-01 1.49e+00 3.91e+03  -6.0 2.10e+02  -8.2 5.79e-01 9.80e-01h  1
 172 -2.2408685e-01 1.08e+01 2.24e+05  -6.0 5.19e+03  -8.7 1.09e-02 2.21e-01h  1
 173 -2.2405973e-01 1.07e+01 2.21e+05  -6.0 1.08e+03  -8.3 3.61e-02 1.37e-02h  1
 174 -2.2705891e-01 1.09e+01 1.26e+05  -6.0 2.61e+02  -7.8 3.19e-01 4.29e-01h  1
 175 -2.3042370e-01 2.35e+01 1.05e+05  -6.0 1.64e+03  -8.3 1.87e-01 1.70e-01h  1
 176 -2.3093765e-01 1.96e+01 8.73e+04  -6.0 1.99e+02  -7.9 6.55e-01 1.66e-01h  1
 177 -2.3898902e-01 1.26e+02 4.49e+04  -6.0 1.28e+03  -8.4 9.65e-03 4.85e-01h  1
 178 -2.3926970e-01 1.23e+02 4.36e+04  -6.0 7.58e+02  -7.9 1.29e-03 2.95e-02h  1
 179 -2.3936601e-01 1.22e+02 4.32e+04  -6.0 4.27e+02  -7.5 4.76e-04 9.39e-03h  1
iter    objective    inf_pr   inf_du lg(mu)  ||d||  lg(rg) alpha_du alpha_pr  ls
 180 -2.3935954e-01 1.22e+02 4.32e+04  -6.0 1.02e+04  -8.0 1.45e-05 9.26e-05h  1
 181 -2.3936670e-01 1.22e+02 4.32e+04  -6.0 5.19e+03  -7.6 1.91e-07 5.76e-05h  1
 182 -2.3937585e-01 1.21e+02 4.31e+04  -6.0 8.31e+02  -8.0 1.26e-04 8.86e-04f  1
 183 -2.3937927e-01 1.21e+02 4.31e+04  -6.0 2.87e+03  -7.6 1.04e-06 5.83e-05h  1
 184 -2.3937753e-01 1.21e+02 4.31e+04  -6.0 4.91e+03  -8.1 1.54e-06 5.77e-05f  1
 185 -2.3937971e-01 1.21e+02 4.31e+04  -6.0 2.08e+03  -7.7 3.55e-06 5.98e-05h  1
 186 -2.3937893e-01 1.21e+02 4.31e+04  -6.0 2.50e+03  -8.1 4.61e-06 5.88e-05f  1
 187 -2.3938044e-01 1.21e+02 4.31e+04  -6.0 1.63e+03  -7.7 1.22e-05 6.09e-05h  1
 188 -2.3938038e-01 1.21e+02 4.31e+04  -6.0 1.10e+03  -8.2 1.62e-05 6.11e-05f  1
 189 -2.3938153e-01 1.21e+02 4.31e+04  -6.0 1.36e+03  -7.8 5.56e-05 6.53e-05h  1
iter    objective    inf_pr   inf_du lg(mu)  ||d||  lg(rg) alpha_du alpha_pr  ls
 190 -2.3938214e-01 1.21e+02 4.31e+04  -6.0 9.35e+02  -8.2 2.13e-04 6.92e-05f  1
 191 -2.3938404e-01 1.21e+02 4.31e+04  -6.0 9.57e+02  -7.8 9.96e-02 1.90e-04f  1
 192 -2.4065625e-01 1.17e+02 4.15e+04  -6.0 4.87e+03  -8.3 7.15e-02 3.64e-02h  1
 193 -2.4270309e-01 9.05e+01 3.23e+04  -6.0 7.63e+02  -8.8 1.82e-01 2.21e-01h  1
 194 -2.4338928e-01 8.92e+01 3.19e+04  -6.0 1.19e+04  -9.3 5.40e-03 1.42e-02h  1
 195 -2.4406357e-01 8.90e+01 3.18e+04  -6.0 1.07e+05  -9.7 9.12e-03 2.90e-03h  1
 196 -2.4457235e-01 8.66e+01 3.10e+04  -6.0 2.74e+03  -9.3 8.45e-04 2.60e-02f  1
 197 -2.4465636e-01 8.65e+01 3.09e+04  -6.0 2.80e+04  -9.8 4.55e-02 1.19e-03h  1
 198 -2.4515719e-01 8.08e+01 2.88e+04  -6.0 3.97e+03  -9.4 1.86e-02 6.65e-02h  1
 199 -2.4561881e-01 7.02e+01 2.51e+04  -6.0 2.69e+03  -8.9 3.34e-02 1.29e-01h  1
iter    objective    inf_pr   inf_du lg(mu)  ||d||  lg(rg) alpha_du alpha_pr  ls
 200 -2.4564631e-01 6.39e+01 2.28e+04  -6.0 7.58e+03  -9.4 1.39e-02 8.99e-02h  1
 201 -2.4490169e-01 4.06e+01 1.45e+04  -6.0 8.70e+02  -9.0 6.90e-02 3.61e-01h  1
 202 -2.4608587e-01 3.33e+01 1.20e+04  -6.0 1.94e+03  -9.5 2.09e-01 1.76e-01h  1
 203 -2.4626035e-01 3.23e+01 1.16e+04  -6.0 8.04e+02  -9.0 2.91e-01 2.99e-02h  1
 204 -2.4806620e-01 2.58e+01 9.26e+03  -6.0 3.28e+03  -9.5 4.90e-02 2.02e-01h  1
 205 -2.5104450e-01 2.52e+01 8.47e+03  -6.0 3.01e+04 -10.0 9.16e-03 8.53e-02h  1
 206 -2.5131147e-01 2.35e+01 7.86e+03  -6.0 4.58e+03  -9.6 9.51e-02 7.19e-02h  1
 207 -2.5269759e-01 1.88e+01 5.42e+03  -6.0 1.09e+03  -9.1 3.58e-02 3.11e-01h  1
 208 -2.5352524e-01 1.94e+01 5.19e+03  -6.0 5.67e+03  -9.6 1.16e-01 4.32e-02h  1
 209 -2.5431001e-01 1.77e+01 4.43e+03  -6.0 1.48e+03  -9.2 3.38e-01 1.46e-01h  1
iter    objective    inf_pr   inf_du lg(mu)  ||d||  lg(rg) alpha_du alpha_pr  ls
 210 -2.5601171e-01 1.43e+01 3.58e+03  -6.0 9.83e+03  -9.7 1.54e-01 1.93e-01h  1
 211 -2.5603606e-01 1.12e+01 2.80e+03  -6.0 1.07e+03  -7.4 8.60e-03 2.18e-01h  1
 212 -2.5612015e-01 1.07e+01 2.67e+03  -6.0 4.45e+01  -6.1 4.70e-02 4.59e-02h  1
 213 -2.5616967e-01 1.03e+01 2.57e+03  -6.0 4.99e+01  -6.6 1.08e-01 3.51e-02h  1
 214 -2.5647598e-01 1.56e+01 1.93e+03  -6.0 2.16e+02  -7.1 7.24e-02 2.51e-01h  1
 215 -2.5657420e-01 1.37e+01 1.70e+03  -6.0 1.50e+02  -7.5 3.31e-02 1.19e-01h  1
 216 -2.5663366e-01 1.27e+01 1.58e+03  -6.0 1.05e+02  -8.0 4.97e-01 7.09e-02h  1
 217 -2.5718859e-01 5.49e+00 7.15e+02  -6.0 1.35e+02  -8.5 5.34e-01 5.46e-01h  1
 218 -2.5845864e-01 1.13e+01 4.70e+01  -6.0 3.94e+02  -9.0 1.73e-01 1.00e+00h  1
 219 -2.5952085e-01 1.22e+01 8.45e+01  -6.0 9.27e+02  -9.4 5.63e-01 7.05e-01h  1
iter    objective    inf_pr   inf_du lg(mu)  ||d||  lg(rg) alpha_du alpha_pr  ls
 220 -2.5956156e-01 1.18e+01 8.24e+01  -6.0 1.68e+03  -9.9 4.99e-02 3.30e-02h  1
 221 -2.5966530e-01 1.12e+01 7.79e+01  -6.0 3.64e+03 -10.4 5.98e-02 5.59e-02h  1
 222 -2.5967615e-01 1.03e+01 7.37e+01  -6.0 8.52e+02 -10.0 1.73e-01 7.85e-02h  1
 223 -2.5977467e-01 7.50e+00 5.37e+01  -6.0 1.90e+03 -10.4 2.62e-01 2.75e-01h  1
 224 -2.5980158e-01 6.32e+00 4.72e+01  -6.0 8.65e+02 -10.0 3.30e-01 1.58e-01h  1
 225 -2.5982358e-01 2.74e+00 2.13e+01  -6.0 3.56e+02  -9.6 6.79e-01 5.68e-01h  1
 226 -2.5986392e-01 2.01e+00 1.58e+01  -6.0 8.95e+02 -10.1 3.54e-01 2.72e-01h  1
 227 -2.5987433e-01 1.99e+00 1.56e+01  -6.0 3.47e+04 -10.5 8.72e-03 9.16e-03h  3
 228 -2.5994289e-01 3.05e+00 1.31e+01  -6.0 9.36e+02 -10.1 6.70e-01 4.85e-01h  1
 229 -2.5995434e-01 2.22e+00 3.67e+01  -6.0 3.61e+02  -9.7 2.12e-01 2.86e-01h  1
iter    objective    inf_pr   inf_du lg(mu)  ||d||  lg(rg) alpha_du alpha_pr  ls
 230 -2.5999020e-01 2.49e+00 3.55e+01  -6.0 9.35e+02 -10.2 6.25e-01 2.62e-01h  1
 231 -2.6008069e-01 1.53e+01 1.60e+02  -6.0 2.07e+03 -10.6 5.26e-01 1.00e+00h  1
 232 -2.6006939e-01 7.16e+00 8.72e+01  -6.0 9.97e+02 -10.2 1.00e+00 5.57e-01h  1
 233 -2.6011110e-01 2.02e+00 3.18e+00  -6.0 6.49e+02  -9.8 1.00e+00 1.00e+00h  1
 234 -2.6028327e-01 2.23e+00 4.32e+00  -6.0 5.40e+02  -9.4 1.00e+00 1.00e+00h  1
 235 -2.6054883e-01 4.70e+00 4.93e+00  -6.0 3.88e+02  -8.9 8.14e-01 9.67e-01h  1
 236 -2.6057185e-01 1.10e+01 3.13e+01  -6.0 5.76e+03    -  4.38e-01 1.64e-01h  1
 237 -2.6057537e-01 1.44e+01 2.16e+01  -6.0 3.86e+03  -9.4 2.21e-05 2.80e-02H  1
 238 -2.6075946e-01 1.41e+01 2.14e+01  -6.0 3.80e+04  -9.9 1.25e-02 2.25e-02h  1
 239 -2.6095878e-01 1.65e+00 1.31e+01  -6.0 7.18e+02 -10.4 1.00e+00 1.00e+00h  1
iter    objective    inf_pr   inf_du lg(mu)  ||d||  lg(rg) alpha_du alpha_pr  ls
 240 -2.6080349e-01 1.90e-01 1.09e+00  -6.0 1.22e+01  -8.1 1.00e+00 1.00e+00h  1
 241 -2.6078301e-01 9.46e-03 1.34e-01  -6.0 1.09e+01  -8.6 1.00e+00 1.00e+00h  1
 242 -2.6078527e-01 2.51e-02 1.66e-02  -6.0 2.30e+01  -9.1 1.00e+00 1.00e+00h  1
 243 -2.6078659e-01 1.40e-02 5.22e-03  -6.0 7.14e+01  -9.6 1.00e+00 1.00e+00H  1
 244 -2.6078808e-01 3.64e-02 3.65e-02  -6.0 2.05e+02 -10.1 1.00e+00 1.00e+00H  1
 245 -2.6078770e-01 6.59e-02 6.04e-03  -6.0 5.46e+01  -9.6 1.00e+00 1.00e+00H  1
 246 -2.6078764e-01 1.23e-01 9.93e+00  -6.0 5.89e+02 -10.1 1.00e+00 6.32e-02h  3
 247 -2.6078542e-01 1.58e-01 3.04e+01  -6.0 9.81e+02    -  1.00e+00 9.64e-02h  3
 248 -2.6076121e-01 1.22e+00 1.02e+00  -6.0 9.19e+02    -  1.00e+00 8.83e-01h  1
 249 -2.6076307e-01 1.37e+00 3.99e+01  -6.0 7.61e+02 -10.6 1.00e+00 2.64e-01h  2
iter    objective    inf_pr   inf_du lg(mu)  ||d||  lg(rg) alpha_du alpha_pr  ls
 250 -2.6076017e-01 1.52e+00 2.46e+01  -6.0 9.13e+02    -  6.22e-01 2.51e-01H  1
 251 -2.6075700e-01 1.20e+00 2.84e+01  -6.0 5.77e+02    -  1.00e+00 3.63e-01h  2
 252 -2.6075299e-01 1.58e+00 1.70e+01  -6.0 5.71e+02    -  4.98e-01 4.27e-01H  1
 253 -2.6074369e-01 2.55e-01 2.46e-01  -6.0 1.24e+02    -  1.00e+00 1.00e+00h  1
 254 -2.6074355e-01 4.20e-02 3.81e-02  -6.0 5.02e+01    -  1.00e+00 1.00e+00h  1
 255 -2.6074349e-01 2.32e-04 1.77e-04  -6.0 3.76e+00    -  1.00e+00 1.00e+00h  1
 256 -2.6074349e-01 2.89e-10 1.40e-10  -6.0 3.91e-03    -  1.00e+00 1.00e+00h  1
 257 -2.6122817e-01 1.39e+00 8.07e+01  -7.5 2.65e+03    -  5.02e-01 2.19e-01f  1
 258 -2.6141741e-01 3.76e+00 5.86e+01  -7.5 3.37e+03    -  3.06e-02 1.19e-01h  1
 259 -2.6145598e-01 3.59e+00 8.86e+01  -7.5 2.89e+02  -9.3 2.84e-01 4.65e-02h  1
iter    objective    inf_pr   inf_du lg(mu)  ||d||  lg(rg) alpha_du alpha_pr  ls
 260 -2.6188856e-01 1.28e+01 4.91e+01  -7.5 2.55e+03    -  7.39e-04 3.77e-01h  1
 261 -2.6203789e-01 9.26e+00 7.13e+01  -7.5 1.84e+03    -  4.96e-01 2.80e-01h  1
 262 -2.6210351e-01 7.84e+00 1.04e+02  -7.5 1.62e+03    -  6.45e-01 1.59e-01h  1
 263 -2.6223800e-01 3.67e+00 4.39e+01  -7.5 1.83e+02  -9.7 2.65e-01 5.32e-01h  1
 264 -2.6236410e-01 1.99e+01 1.37e+01  -7.5 2.04e+03    -  3.97e-02 6.45e-01h  1
 265 -2.6237498e-01 1.54e+01 1.01e+01  -7.5 1.03e+03    -  1.21e-01 2.33e-01h  1
 266 -2.6238921e-01 1.16e+01 8.69e+00  -7.5 6.74e+02    -  6.42e-01 2.44e-01h  1
 267 -2.6240828e-01 4.96e-01 2.29e+00  -7.5 1.14e+02 -10.2 5.70e-01 9.61e-01h  1
 268 -2.6241117e-01 3.90e-01 5.24e-01  -7.5 4.75e+02    -  7.52e-01 2.16e-01h  1
 269 -2.6241521e-01 1.74e+00 4.11e-01  -7.5 3.80e+02    -  2.71e-01 1.00e+00h  1
iter    objective    inf_pr   inf_du lg(mu)  ||d||  lg(rg) alpha_du alpha_pr  ls
 270 -2.6241517e-01 1.59e+00 2.44e-01  -7.5 7.92e+02    -  4.16e-01 8.70e-02h  4
 271 -2.6241518e-01 1.58e+00 7.12e-01  -7.5 4.59e+03    -  3.40e-01 4.83e-03h  8
 272 -2.6241517e-01 1.56e+00 7.77e-01  -7.5 2.48e+03    -  4.80e-01 1.51e-02h  7
 273 -2.6241516e-01 1.51e+00 9.68e-01  -7.5 1.99e+03    -  1.00e+00 3.12e-02h  6
 274 -2.6241511e-01 1.41e+00 8.01e-01  -7.5 1.42e+03    -  6.16e-01 6.25e-02h  5
 275 -2.6241510e-01 1.37e+00 1.08e+00  -7.5 2.21e+03    -  1.00e+00 3.12e-02h  6
 276 -2.6241507e-01 1.28e+00 8.79e-01  -7.5 1.59e+03    -  8.17e-01 6.25e-02h  5
 277 -2.6241506e-01 1.24e+00 1.07e+00  -7.5 2.13e+03    -  1.00e+00 3.12e-02h  6
 278 -2.6241503e-01 1.17e+00 9.07e-01  -7.5 1.73e+03    -  1.00e+00 6.25e-02h  5
 279 -2.6241503e-01 1.13e+00 1.06e+00  -7.5 2.09e+03    -  1.00e+00 3.12e-02h  6
iter    objective    inf_pr   inf_du lg(mu)  ||d||  lg(rg) alpha_du alpha_pr  ls
 280 -2.6241477e-01 4.17e+01 4.10e-02  -7.5 1.84e+03    -  1.00e+00 1.00e+00w  1
 281 -2.6241563e-01 7.94e+01 1.33e-01  -7.5 7.82e+03    -  2.32e-01 2.43e-01w  1
 282 -2.6241614e-01 4.41e+00 3.75e-02  -7.5 4.79e+02    -  1.00e+00 1.00e+00h  1
 283 -2.6241717e-01 1.99e+01 1.27e+00  -7.5 1.26e+03    -  4.09e-02 1.00e+00H  1
 284 -2.6241718e-01 8.24e-03 2.35e-01  -7.5 1.00e+01 -10.7 8.46e-01 1.00e+00h  1
 285 -2.6241727e-01 1.19e-02 1.49e-03  -7.5 1.39e+02    -  1.00e+00 1.00e+00H  1
 286 -2.6241727e-01 5.84e-06 3.24e-07  -7.5 6.22e-01    -  1.00e+00 1.00e+00h  1
 287 -2.6241727e-01 2.83e-10 5.56e-13  -7.5 4.85e-04    -  1.00e+00 1.00e+00h  1
 288 -2.6241977e-01 2.99e+00 2.45e+00  -9.0 1.70e+03    -  5.24e-01 2.58e-01h  1
 289 -2.6242184e-01 6.18e+01 1.30e+00  -9.0 5.71e+03    -  2.68e-01 3.41e-01h  1
iter    objective    inf_pr   inf_du lg(mu)  ||d||  lg(rg) alpha_du alpha_pr  ls
 290 -2.6242274e-01 4.38e+01 6.03e-01  -9.0 1.56e+03    -  3.78e-01 4.23e-01h  1
 291 -2.6242315e-01 3.66e+01 3.80e-01  -9.0 1.85e+03    -  2.54e-01 2.81e-01h  1
 292 -2.6242423e-01 1.00e+02 1.39e+01  -9.0 4.56e+03    -  3.28e-02 6.49e-01h  1
 293 -2.6242529e-01 4.83e+01 3.88e+01  -9.0 1.82e+03    -  9.40e-04 1.00e+00h  1
 294 -2.6242551e-01 9.27e+00 7.58e+00  -9.0 7.77e+02    -  1.15e-01 1.00e+00h  1
 295 -2.6242585e-01 1.79e+01 7.64e-01  -9.0 1.12e+03    -  4.28e-01 1.00e+00h  1
 296 -2.6242597e-01 8.59e+00 1.77e-01  -9.0 6.71e+02    -  7.60e-01 9.19e-01h  1
 297 -2.6242598e-01 8.58e+00 1.83e-01  -9.0 8.06e+03    -  2.03e-01 5.19e-03h  5
 298 -2.6242601e-01 8.55e+00 1.24e-01  -9.0 2.23e+03    -  9.12e-01 7.01e-02h  3
 299 -2.6242610e-01 8.75e+00 4.65e-02  -9.0 1.19e+03    -  9.92e-01 3.57e-01H  1
iter    objective    inf_pr   inf_du lg(mu)  ||d||  lg(rg) alpha_du alpha_pr  ls
 300 -2.6242604e-01 1.42e+00 5.26e-02  -9.0 3.11e+02    -  4.77e-01 1.00e+00h  1
 301 -2.6242637e-01 3.59e+01 4.23e-02  -9.0 2.00e+03    -  9.89e-02 7.87e-01h  1
 302 -2.6242632e-01 2.80e+01 3.46e-02  -9.0 1.06e+03    -  1.80e-01 2.50e-01h  3
 303 -2.6242634e-01 2.80e+01 3.29e-02  -9.0 3.27e+04    -  5.03e-02 2.96e-03h  5
 304 -2.6242638e-01 2.82e+01 4.31e-02  -9.0 1.50e+04    -  1.02e-01 1.29e-02h  4
 305 -2.6242640e-01 9.62e-02 2.90e-02  -9.0 5.05e+01 -11.2 2.59e-01 1.00e+00h  1
 306 -2.6242690e-01 2.89e+01 1.59e-02  -9.0 2.34e+03    -  1.00e+00 1.00e+00H  1
 307 -2.6242695e-01 2.76e+01 1.44e-02  -9.0 3.07e+03    -  8.02e-02 9.59e-02h  3
 308 -2.6242694e-01 9.07e-02 9.92e-05  -9.0 4.42e+01 -11.6 1.00e+00 1.00e+00h  1
 309 -2.6242696e-01 7.52e+00 8.51e-03  -9.0 1.50e+04    -  8.93e-03 3.72e-02h  2
iter    objective    inf_pr   inf_du lg(mu)  ||d||  lg(rg) alpha_du alpha_pr  ls
 310 -2.6242696e-01 7.49e+00 6.29e-03  -9.0 5.57e+03    -  9.70e-02 9.40e-03h  6
Error in an AMPL evaluation. Run with "halt_on_ampl_error yes" to see details.
Warning: Cutting back alpha due to evaluation error
 311 -2.6242696e-01 7.49e+00 3.32e-02  -9.0 9.56e+03    -  1.49e-01 2.63e-03h  7
 312 -2.6242699e-01 3.03e-01 1.77e-04  -9.0 1.24e+02 -12.1 1.00e+00 1.00e+00h  1
 313 -2.6242704e-01 3.62e+00 5.76e-03  -9.0 3.78e+02 -12.6 4.97e-01 1.00e+00h  1
 314 -2.6242711e-01 1.53e+01 3.60e-02  -9.0 1.17e+03 -13.1 4.57e-02 1.00e+00H  1
 315 -2.6242712e-01 1.46e-02 4.25e-04  -9.0 3.67e+01 -11.7 1.00e+00 1.00e+00h  1
 316 -2.6242715e-01 3.28e+00 2.46e-02  -9.0 2.77e+03    -  5.03e-01 1.48e-01h  3
 317 -2.6242715e-01 3.26e+00 5.61e-02  -9.0 2.34e+03    -  1.00e+00 2.12e-02h  6
 318 -2.6242724e-01 1.45e+01 3.82e-03  -9.0 1.10e+03    -  1.00e+00 1.00e+00H  1
 319 -2.6242731e-01 9.68e+00 4.74e-03  -9.0 6.58e+02    -  1.00e+00 1.00e+00h  1
iter    objective    inf_pr   inf_du lg(mu)  ||d||  lg(rg) alpha_du alpha_pr  ls
 320 -2.6242730e-01 4.46e-01 1.27e-04  -9.0 1.32e+02    -  1.00e+00 1.00e+00h  1
 321 -2.6242730e-01 1.63e-02 3.01e-06  -9.0 2.73e+01    -  1.00e+00 1.00e+00h  1
 322 -2.6242730e-01 8.26e-06 1.73e-09  -9.0 6.22e-01    -  1.00e+00 1.00e+00h  1
 323 -2.6242730e-01 2.83e-10 1.55e-14  -9.0 2.78e-04    -  1.00e+00 1.00e+00h  1

Number of Iterations....: 323

                                   (scaled)                 (unscaled)
Objective...............:  -2.6242729590352287e-01   -2.6242729590352287e-01
Dual infeasibility......:   1.5515366769136563e-14    1.5515366769136563e-14
Constraint violation....:   2.8280907270975680e-10    2.8280907270975680e-10
Complementarity.........:   9.0909092364193693e-10    9.0909092364193693e-10
Overall NLP error.......:   9.0909092364193693e-10    9.0909092364193693e-10


Number of objective function evaluations             = 874
Number of objective gradient evaluations             = 324
Number of equality constraint evaluations            = 875
Number of inequality constraint evaluations          = 875
Number of equality constraint Jacobian evaluations   = 325
Number of inequality constraint Jacobian evaluations = 325
Number of Lagrangian Hessian evaluations             = 323
Total CPU secs in IPOPT (w/o function evaluations)   =    807.672
Total CPU secs in NLP function evaluations           =     12.621

EXIT: Optimal Solution Found.
